data/input/generated/361.dat
set P := 1 2 3 4 5 6 7 8 9 10 11 12 13 14 15 16 17 18 19;

set I := 1;

param 
v [*,*]
:      1       :=
1    0.5378
2    0.1413
3    0.9026
4    0.7197
5    0.982
6    0.7504
7    0.0738
8    0.1738
9    0.6991
10   0.3934
11   0.2588
12   0.681
13   0.7672
14   0.7125
15   0.8943
16   0.6281
17   0.8483
18   0.6569
19   0.3538
;

